(set-logic QF_LRA)
(declare-fun X0 () Real )
(declare-fun Y0 () Real )
(declare-fun X1 () Real )
(declare-fun Y1 () Real )
(declare-fun X2 () Real )
(declare-fun Y2 () Real )
(declare-fun X3 () Real )
(declare-fun Y3 () Real )
(declare-fun X4 () Real )
(declare-fun Y4 () Real )
(declare-fun X5 () Real )
(declare-fun Y5 () Real )
(declare-fun X6 () Real )
(declare-fun Y6 () Real )
(declare-fun X7 () Real )
(declare-fun Y7 () Real )
(declare-fun X8 () Real )
(declare-fun Y8 () Real )
(declare-fun Z () Real )
(assert ( and  
( or ( <= ( + X0 79 ) X1 )  ( <= ( + X1 50 ) X0 )  ( <= ( + Y0 9 ) Y1 )  ( <= ( + Y1 24 ) Y0 )  )
( or ( <= ( + X0 79 ) X2 )  ( <= ( + X2 47 ) X0 )  ( <= ( + Y0 9 ) Y2 )  ( <= ( + Y2 58 ) Y0 )  )
( or ( <= ( + X0 79 ) X3 )  ( <= ( + X3 70 ) X0 )  ( <= ( + Y0 9 ) Y3 )  ( <= ( + Y3 16 ) Y0 )  )
( or ( <= ( + X0 79 ) X4 )  ( <= ( + X4 71 ) X0 )  ( <= ( + Y0 9 ) Y4 )  ( <= ( + Y4 26 ) Y0 )  )
( or ( <= ( + X0 79 ) X5 )  ( <= ( + X5 60 ) X0 )  ( <= ( + Y0 9 ) Y5 )  ( <= ( + Y5 98 ) Y0 )  )
( or ( <= ( + X0 79 ) X6 )  ( <= ( + X6 89 ) X0 )  ( <= ( + Y0 9 ) Y6 )  ( <= ( + Y6 53 ) Y0 )  )
( or ( <= ( + X0 79 ) X7 )  ( <= ( + X7 74 ) X0 )  ( <= ( + Y0 9 ) Y7 )  ( <= ( + Y7 15 ) Y0 )  )
( or ( <= ( + X0 79 ) X8 )  ( <= ( + X8 96 ) X0 )  ( <= ( + Y0 9 ) Y8 )  ( <= ( + Y8 54 ) Y0 )  )
( or ( <= ( + X1 50 ) X2 )  ( <= ( + X2 47 ) X1 )  ( <= ( + Y1 24 ) Y2 )  ( <= ( + Y2 58 ) Y1 )  )
( or ( <= ( + X1 50 ) X3 )  ( <= ( + X3 70 ) X1 )  ( <= ( + Y1 24 ) Y3 )  ( <= ( + Y3 16 ) Y1 )  )
( or ( <= ( + X1 50 ) X4 )  ( <= ( + X4 71 ) X1 )  ( <= ( + Y1 24 ) Y4 )  ( <= ( + Y4 26 ) Y1 )  )
( or ( <= ( + X1 50 ) X5 )  ( <= ( + X5 60 ) X1 )  ( <= ( + Y1 24 ) Y5 )  ( <= ( + Y5 98 ) Y1 )  )
( or ( <= ( + X1 50 ) X6 )  ( <= ( + X6 89 ) X1 )  ( <= ( + Y1 24 ) Y6 )  ( <= ( + Y6 53 ) Y1 )  )
( or ( <= ( + X1 50 ) X7 )  ( <= ( + X7 74 ) X1 )  ( <= ( + Y1 24 ) Y7 )  ( <= ( + Y7 15 ) Y1 )  )
( or ( <= ( + X1 50 ) X8 )  ( <= ( + X8 96 ) X1 )  ( <= ( + Y1 24 ) Y8 )  ( <= ( + Y8 54 ) Y1 )  )
( or ( <= ( + X2 47 ) X3 )  ( <= ( + X3 70 ) X2 )  ( <= ( + Y2 58 ) Y3 )  ( <= ( + Y3 16 ) Y2 )  )
( or ( <= ( + X2 47 ) X4 )  ( <= ( + X4 71 ) X2 )  ( <= ( + Y2 58 ) Y4 )  ( <= ( + Y4 26 ) Y2 )  )
( or ( <= ( + X2 47 ) X5 )  ( <= ( + X5 60 ) X2 )  ( <= ( + Y2 58 ) Y5 )  ( <= ( + Y5 98 ) Y2 )  )
( or ( <= ( + X2 47 ) X6 )  ( <= ( + X6 89 ) X2 )  ( <= ( + Y2 58 ) Y6 )  ( <= ( + Y6 53 ) Y2 )  )
( or ( <= ( + X2 47 ) X7 )  ( <= ( + X7 74 ) X2 )  ( <= ( + Y2 58 ) Y7 )  ( <= ( + Y7 15 ) Y2 )  )
( or ( <= ( + X2 47 ) X8 )  ( <= ( + X8 96 ) X2 )  ( <= ( + Y2 58 ) Y8 )  ( <= ( + Y8 54 ) Y2 )  )
( or ( <= ( + X3 70 ) X4 )  ( <= ( + X4 71 ) X3 )  ( <= ( + Y3 16 ) Y4 )  ( <= ( + Y4 26 ) Y3 )  )
( or ( <= ( + X3 70 ) X5 )  ( <= ( + X5 60 ) X3 )  ( <= ( + Y3 16 ) Y5 )  ( <= ( + Y5 98 ) Y3 )  )
( or ( <= ( + X3 70 ) X6 )  ( <= ( + X6 89 ) X3 )  ( <= ( + Y3 16 ) Y6 )  ( <= ( + Y6 53 ) Y3 )  )
( or ( <= ( + X3 70 ) X7 )  ( <= ( + X7 74 ) X3 )  ( <= ( + Y3 16 ) Y7 )  ( <= ( + Y7 15 ) Y3 )  )
( or ( <= ( + X3 70 ) X8 )  ( <= ( + X8 96 ) X3 )  ( <= ( + Y3 16 ) Y8 )  ( <= ( + Y8 54 ) Y3 )  )
( or ( <= ( + X4 71 ) X5 )  ( <= ( + X5 60 ) X4 )  ( <= ( + Y4 26 ) Y5 )  ( <= ( + Y5 98 ) Y4 )  )
( or ( <= ( + X4 71 ) X6 )  ( <= ( + X6 89 ) X4 )  ( <= ( + Y4 26 ) Y6 )  ( <= ( + Y6 53 ) Y4 )  )
( or ( <= ( + X4 71 ) X7 )  ( <= ( + X7 74 ) X4 )  ( <= ( + Y4 26 ) Y7 )  ( <= ( + Y7 15 ) Y4 )  )
( or ( <= ( + X4 71 ) X8 )  ( <= ( + X8 96 ) X4 )  ( <= ( + Y4 26 ) Y8 )  ( <= ( + Y8 54 ) Y4 )  )
( or ( <= ( + X5 60 ) X6 )  ( <= ( + X6 89 ) X5 )  ( <= ( + Y5 98 ) Y6 )  ( <= ( + Y6 53 ) Y5 )  )
( or ( <= ( + X5 60 ) X7 )  ( <= ( + X7 74 ) X5 )  ( <= ( + Y5 98 ) Y7 )  ( <= ( + Y7 15 ) Y5 )  )
( or ( <= ( + X5 60 ) X8 )  ( <= ( + X8 96 ) X5 )  ( <= ( + Y5 98 ) Y8 )  ( <= ( + Y8 54 ) Y5 )  )
( or ( <= ( + X6 89 ) X7 )  ( <= ( + X7 74 ) X6 )  ( <= ( + Y6 53 ) Y7 )  ( <= ( + Y7 15 ) Y6 )  )
( or ( <= ( + X6 89 ) X8 )  ( <= ( + X8 96 ) X6 )  ( <= ( + Y6 53 ) Y8 )  ( <= ( + Y8 54 ) Y6 )  )
( or ( <= ( + X7 74 ) X8 )  ( <= ( + X8 96 ) X7 )  ( <= ( + Y7 15 ) Y8 )  ( <= ( + Y8 54 ) Y7 )  )
( >= X0 0)
( <= ( + X0 79) Z)
( >= Y0 0)
( <= ( + Y0 9 ) 100)
( >= X1 0)
( <= ( + X1 50) Z)
( >= Y1 0)
( <= ( + Y1 24 ) 100)
( >= X2 0)
( <= ( + X2 47) Z)
( >= Y2 0)
( <= ( + Y2 58 ) 100)
( >= X3 0)
( <= ( + X3 70) Z)
( >= Y3 0)
( <= ( + Y3 16 ) 100)
( >= X4 0)
( <= ( + X4 71) Z)
( >= Y4 0)
( <= ( + Y4 26 ) 100)
( >= X5 0)
( <= ( + X5 60) Z)
( >= Y5 0)
( <= ( + Y5 98 ) 100)
( >= X6 0)
( <= ( + X6 89) Z)
( >= Y6 0)
( <= ( + Y6 53 ) 100)
( >= X7 0)
( <= ( + X7 74) Z)
( >= Y7 0)
( <= ( + Y7 15 ) 100)
( >= X8 0)
( <= ( + X8 96) Z)
( >= Y8 0)
( <= ( + Y8 54 ) 100)
) )
(minimize Z)
(check-sat)
